CST04
Position Depot: Random
Horizon for Depot: Small
Position of customers: Cluster
Distribution of the demand: Medium
Width of time windows: Tight
Distribution of the service: Small

VEHICLE 
NUMBER 	 CAPACITY 
 16 	 	 107 
 
CUSTOMER
CUST NO. 	 XCOORD.  	 YCOORD. 	 DEMAND 	 READY TIME 	 DUE DATE 	 SERVICE TIME 
 0 	 	 230 	 	 851 	 	 0 	 	 0 	 	 1980 	 	 0 
  1 	 	 149 	 	 398 	 	 8 	 	 624 	 	 820 	 	 57 
  2 	 	 18 	 	 526 	 	 10 	 	 241 	 	 426 	 	 78 
  3 	 	 500 	 	 496 	 	 80 	 	 426 	 	 554 	 	 56 
  4 	 	 61 	 	 419 	 	 2 	 	 1452 	 	 1526 	 	 63 
  5 	 	 74 	 	 465 	 	 7 	 	 1115 	 	 1194 	 	 55 
  6 	 	 24 	 	 488 	 	 9 	 	 309 	 	 459 	 	 54 
  7 	 	 117 	 	 324 	 	 8 	 	 1256 	 	 1419 	 	 69 
  8 	 	 105 	 	 302 	 	 7 	 	 1810 	 	 1980 	 	 64 
  9 	 	 515 	 	 465 	 	 9 	 	 449 	 	 527 	 	 85 
  10 	 	 409 	 	 516 	 	 91 	 	 329 	 	 502 	 	 77 
  11 	 	 278 	 	 389 	 	 4 	 	 414 	 	 510 	 	 69 
  12 	 	 27 	 	 481 	 	 57 	 	 317 	 	 464 	 	 93 
  13 	 	 529 	 	 460 	 	 5 	 	 1018 	 	 1108 	 	 70 
  14 	 	 61 	 	 416 	 	 1 	 	 1596 	 	 1668 	 	 81 
  15 	 	 519 	 	 472 	 	 84 	 	 1018 	 	 1145 	 	 78 
  16 	 	 320 	 	 367 	 	 2 	 	 1665 	 	 1733 	 	 56 
  17 	 	 83 	 	 480 	 	 59 	 	 1279 	 	 1395 	 	 73 
  18 	 	 392 	 	 511 	 	 3 	 	 1122 	 	 1302 	 	 96 
  19 	 	 79 	 	 519 	 	 3 	 	 1139 	 	 1243 	 	 66 
  20 	 	 477 	 	 456 	 	 8 	 	 436 	 	 512 	 	 66 
  21 	 	 21 	 	 314 	 	 69 	 	 534 	 	 633 	 	 82 
  22 	 	 12 	 	 512 	 	 4 	 	 1884 	 	 1946 	 	 50 
  23 	 	 186 	 	 396 	 	 98 	 	 356 	 	 502 	 	 99 
  24 	 	 8 	 	 509 	 	 9 	 	 381 	 	 448 	 	 68 
  25 	 	 221 	 	 416 	 	 70 	 	 703 	 	 827 	 	 83 
  26 	 	 478 	 	 512 	 	 1 	 	 849 	 	 962 	 	 87 
  27 	 	 22 	 	 636 	 	 3 	 	 444 	 	 617 	 	 83 
  28 	 	 34 	 	 468 	 	 10 	 	 1290 	 	 1408 	 	 70 
  29 	 	 153 	 	 526 	 	 2 	 	 890 	 	 991 	 	 86 
  30 	 	 481 	 	 549 	 	 5 	 	 866 	 	 918 	 	 94 
  31 	 	 7 	 	 486 	 	 5 	 	 1635 	 	 1709 	 	 99 
  32 	 	 128 	 	 412 	 	 54 	 	 409 	 	 495 	 	 66 
  33 	 	 161 	 	 373 	 	 90 	 	 1451 	 	 1593 	 	 90 
  34 	 	 381 	 	 317 	 	 6 	 	 1198 	 	 1268 	 	 99 
  35 	 	 237 	 	 385 	 	 66 	 	 608 	 	 708 	 	 51 
  36 	 	 118 	 	 537 	 	 8 	 	 554 	 	 754 	 	 79 
  37 	 	 98 	 	 287 	 	 8 	 	 835 	 	 998 	 	 97 
  38 	 	 71 	 	 600 	 	 4 	 	 328 	 	 404 	 	 72 
  39 	 	 37 	 	 536 	 	 6 	 	 251 	 	 406 	 	 80 
  40 	 	 51 	 	 565 	 	 85 	 	 1231 	 	 1367 	 	 77 
  41 	 	 514 	 	 511 	 	 67 	 	 488 	 	 620 	 	 89 
  42 	 	 450 	 	 480 	 	 9 	 	 686 	 	 846 	 	 96 
  43 	 	 52 	 	 404 	 	 5 	 	 476 	 	 667 	 	 60 
  44 	 	 579 	 	 469 	 	 6 	 	 555 	 	 738 	 	 93 
  45 	 	 142 	 	 328 	 	 80 	 	 1692 	 	 1833 	 	 73 
  46 	 	 563 	 	 392 	 	 57 	 	 971 	 	 1034 	 	 95 
  47 	 	 497 	 	 488 	 	 4 	 	 1215 	 	 1300 	 	 62 
  48 	 	 455 	 	 439 	 	 7 	 	 991 	 	 1187 	 	 93 
  49 	 	 505 	 	 487 	 	 3 	 	 1491 	 	 1602 	 	 95 
  50 	 	 569 	 	 586 	 	 2 	 	 488 	 	 654 	 	 92 
 